NAME 
ROWS
 N  OBJ
 L  R0      
 L  R1      
 L  R2      
 E  R3      
 E  R4      
 E  R5      
 E  R6      
 E  R7      
COLUMNS
    MARKER    'MARKER'                 'INTORG'
    I0(5)     OBJ       -11
    I0(5)     R0        170
    I0(5)     R1        121
    I0(5)     R2        189
    I0(5)     R3        15
    I0(5)     R7        1
    I1(6)     OBJ       -146
    I1(6)     R0        -182
    I1(6)     R1        -186
    I1(6)     R2        73
    I1(6)     R3        7
    I1(6)     R4        14
    I1(6)     R7        1
    I2(5)     OBJ       53
    I2(5)     R0        73
    I2(5)     R1        -179
    I2(5)     R2        -164
    I2(5)     R5        14
    I2(5)     R7        1
    MARKER    'MARKER'                 'INTEND'
    C3(5)     OBJ       6
    C3(5)     R0        -1
    C3(5)     R1        -4
    C3(5)     R2        -3
    C3(5)     R4        6
    C3(5)     R5        5
    C4(4)     OBJ       -6
    C4(4)     R0        -3
    C4(4)     R1        -7
    C4(4)     R2        -2
    C4(4)     R5        2
    C5(1)     R3        1
    C6(1)     R4        1
    C7(1)     R5        1
    C8(1)     R6        1
    C9(1)     R7        1
RHS
    RHS1      R0        -290
    RHS1      R1        -438
    RHS1      R2        1
    RHS1      R3        93
    RHS1      R4        70
    RHS1      R5        72
    RHS1      R6        65
    RHS1      R7        1
BOUNDS
 UP BND1      I0(5)     2
 UP BND1      I1(6)     2
 UP BND1      I2(5)     2
ENDATA
